(set-info :smt-lib-version 2.6)
(set-logic QF_BV)
(set-info :source |
 Patrice Godefroid, SAGE (systematic dynamic test generation)
 For more information: http://research.microsoft.com/en-us/um/people/pg/public_psfiles/ndss2008.pdf
|)
(set-info :category "industrial")
(set-info :status sat)
(declare-fun T4_10796 () (_ BitVec 32))
(declare-fun T4_5786 () (_ BitVec 32))
(declare-fun T1_10796 () (_ BitVec 8))
(declare-fun T1_10797 () (_ BitVec 8))
(declare-fun T1_10798 () (_ BitVec 8))
(declare-fun T1_10799 () (_ BitVec 8))
(declare-fun T1_5786 () (_ BitVec 8))
(declare-fun T1_5787 () (_ BitVec 8))
(declare-fun T1_5788 () (_ BitVec 8))
(declare-fun T1_5789 () (_ BitVec 8))
(assert (let ((?v_3 (bvsub T4_10796 (_ bv1607 32)))) (let ((?v_5 (bvsub T4_10796 ?v_3)) (?v_4 (bvult (_ bv0 32) T4_10796)) (?v_2 (bvadd T4_10796 (_ bv143508734 32))) (?v_1 (bvsub T4_10796 (_ bv1600 32))) (?v_0 (bvashr T4_10796 ((_ zero_extend 24) (_ bv5 8))))) (and true (= T4_5786 (bvor (bvshl (bvor (bvshl (bvor (bvshl ((_ zero_extend 24) T1_5789) (_ bv8 32)) ((_ zero_extend 24) T1_5788)) (_ bv8 32)) ((_ zero_extend 24) T1_5787)) (_ bv8 32)) ((_ zero_extend 24) T1_5786))) (= T4_10796 (bvor (bvshl (bvor (bvshl (bvor (bvshl ((_ zero_extend 24) T1_10799) (_ bv8 32)) ((_ zero_extend 24) T1_10798)) (_ bv8 32)) ((_ zero_extend 24) T1_10797)) (_ bv8 32)) ((_ zero_extend 24) T1_10796))) (bvslt (_ bv4294967295 32) (bvadd ?v_5 (_ bv143508992 32))) (= (bvsub (bvashr ?v_1 ((_ zero_extend 24) (_ bv2 8))) (_ bv1 32)) (_ bv0 32)) (= (bvsub ?v_0 (_ bv50 32)) (_ bv0 32)) (not (= (bvsub ?v_0 (_ bv49 32)) (_ bv0 32))) (bvule (bvsub (_ bv0 32) ((_ zero_extend 24) (ite (bvult T4_10796 (_ bv0 32)) (_ bv1 8) (_ bv0 8)))) (_ bv0 32)) (not (= (bvsub T4_10796 (_ bv1605 32)) (_ bv0 32))) (not (= (bvsub T4_10796 (_ bv1604 32)) (_ bv0 32))) (bvule (_ bv4 32) ?v_1) (not (= (bvsub T4_10796 (_ bv1606 32)) (_ bv0 32))) (not (= (bvsub T4_10796 (_ bv1596 32)) (_ bv0 32))) (bvult (bvsub T4_10796 (_ bv1350 32)) (_ bv258 32)) (bvule ?v_2 (_ bv143510341 32)) (bvult (_ bv143510340 32) ?v_2) (not (= T4_5786 (_ bv4294967295 32))) (= ?v_3 (_ bv0 32)) (bvule (_ bv32 32) T4_10796) (bvule (_ bv258 32) T4_10796) ?v_4 ?v_4 (bvule T4_10796 (_ bv2048 32)) (not (= (_ bv0 32) T4_10796)) (bvule (_ bv0 32) T4_10796) (= T4_5786 T4_10796) (not (= T4_10796 (_ bv0 32))) (not (= ?v_5 (_ bv0 32))) (bvult (_ bv0 32) ?v_5) (not (= ?v_5 (_ bv2048 32))) (= ?v_5 T4_10796)))))
(check-sat)
(exit)
